p wcnf 145 418 169
35 1 0
40 2 0
27 3 0
23 4 0
43 5 0
169 -1 -14 15 0
169 -1 -15 16 0
169 -1 -16 17 0
169 -1 -17 18 0
169 -1 -18 19 0
169 -1 -19 20 0
169 -1 -20 21 0
169 -1 -21 22 0
169 -1 -22 23 0
169 -1 -24 25 0
169 -1 -25 26 0
169 -1 -26 27 0
169 -1 -27 28 0
169 -1 -28 29 0
169 -1 -29 30 0
169 -1 -30 31 0
169 -1 -31 32 0
169 -1 -32 33 0
169 -2 -42 43 0
169 -2 -43 44 0
169 -2 -44 45 0
169 -2 -45 46 0
169 -2 -46 47 0
169 -2 -47 48 0
169 -2 -48 49 0
169 -2 -49 50 0
169 -2 -50 51 0
169 -2 -52 53 0
169 -2 -53 54 0
169 -2 -54 55 0
169 -2 -55 56 0
169 -2 -56 57 0
169 -2 -57 58 0
169 -2 -58 59 0
169 -2 -59 60 0
169 -2 -60 61 0
169 -3 -70 71 0
169 -3 -71 72 0
169 -3 -72 73 0
169 -3 -73 74 0
169 -3 -74 75 0
169 -3 -75 76 0
169 -3 -76 77 0
169 -3 -77 78 0
169 -3 -78 79 0
169 -3 -80 81 0
169 -3 -81 82 0
169 -3 -82 83 0
169 -3 -83 84 0
169 -3 -84 85 0
169 -3 -85 86 0
169 -3 -86 87 0
169 -3 -87 88 0
169 -3 -88 89 0
169 -4 -98 99 0
169 -4 -99 100 0
169 -4 -100 101 0
169 -4 -101 102 0
169 -4 -102 103 0
169 -4 -103 104 0
169 -4 -104 105 0
169 -4 -105 106 0
169 -4 -106 107 0
169 -4 -108 109 0
169 -4 -109 110 0
169 -4 -110 111 0
169 -4 -111 112 0
169 -4 -112 113 0
169 -4 -113 114 0
169 -4 -114 115 0
169 -4 -115 116 0
169 -4 -116 117 0
169 -5 -126 127 0
169 -5 -127 128 0
169 -5 -128 129 0
169 -5 -129 130 0
169 -5 -130 131 0
169 -5 -131 132 0
169 -5 -132 133 0
169 -5 -133 134 0
169 -5 -134 135 0
169 -5 -136 137 0
169 -5 -137 138 0
169 -5 -138 139 0
169 -5 -139 140 0
169 -5 -140 141 0
169 -5 -141 142 0
169 -5 -142 143 0
169 -5 -143 144 0
169 -5 -144 145 0
169 -1 -2 6 34 0
169 -1 -2 -6 -42 0
169 -1 -2 -34 -14 0
169 -1 -2 -34 -15 0
169 -1 -2 -6 14 -43 0
169 -1 -2 -34 42 -16 0
169 -1 -2 -6 15 -44 0
169 -1 -2 -34 43 -17 0
169 -1 -2 -6 16 -45 0
169 -1 -2 -34 44 -18 0
169 -1 -2 -6 17 -46 0
169 -1 -2 -34 45 -19 0
169 -1 -2 -6 18 -47 0
169 -1 -2 -34 46 -20 0
169 -1 -2 -6 19 -48 0
169 -1 -2 -34 47 -21 0
169 -1 -2 -6 20 -49 0
169 -1 -2 -34 48 -22 0
169 -1 -2 -6 21 -50 0
169 -1 -2 -34 49 -23 0
169 -1 -2 -6 22 -51 0
169 -1 -3 8 62 0
169 -1 -3 -8 -70 0
169 -1 -3 -62 -14 0
169 -1 -3 -62 -15 0
169 -1 -3 -62 -16 0
169 -1 -3 -8 14 -71 0
169 -1 -3 -62 70 -17 0
169 -1 -3 -8 15 -72 0
169 -1 -3 -62 71 -18 0
169 -1 -3 -8 16 -73 0
169 -1 -3 -62 72 -19 0
169 -1 -3 -8 17 -74 0
169 -1 -3 -62 73 -20 0
169 -1 -3 -8 18 -75 0
169 -1 -3 -62 74 -21 0
169 -1 -3 -8 19 -76 0
169 -1 -3 -62 75 -22 0
169 -1 -3 -8 20 -77 0
169 -1 -3 -62 76 -23 0
169 -1 -3 -8 21 -78 0
169 -1 -3 -8 22 -79 0
169 -1 -4 10 90 11 91 0
169 -1 -4 -10 -98 0
169 -1 -4 -90 -14 0
169 -1 -4 -90 -15 0
169 -1 -4 -90 -16 0
169 -1 -4 -90 -17 0
169 -1 -4 -11 -108 0
169 -1 -4 -11 -109 0
169 -1 -4 -11 -110 0
169 -1 -4 -91 -24 0
169 -1 -4 -91 -25 0
169 -1 -4 -91 -26 0
169 -1 -4 -91 -27 0
169 -1 -4 -91 -28 0
169 -1 -4 -10 14 -99 0
169 -1 -4 -90 98 -18 0
169 -1 -4 -10 15 -100 0
169 -1 -4 -90 99 -19 0
169 -1 -4 -10 16 -101 0
169 -1 -4 -90 100 -20 0
169 -1 -4 -10 17 -102 0
169 -1 -4 -90 101 -21 0
169 -1 -4 -10 18 -103 0
169 -1 -4 -90 102 -22 0
169 -1 -4 -10 19 -104 0
169 -1 -4 -90 103 -23 0
169 -1 -4 -10 20 -105 0
169 -1 -4 -10 21 -106 0
169 -1 -4 -10 22 -107 0
169 -1 -4 -11 24 -111 0
169 -1 -4 -91 108 -29 0
169 -1 -4 -11 25 -112 0
169 -1 -4 -91 109 -30 0
169 -1 -4 -11 26 -113 0
169 -1 -4 -91 110 -31 0
169 -1 -4 -11 27 -114 0
169 -1 -4 -91 111 -32 0
169 -1 -4 -11 28 -115 0
169 -1 -4 -91 112 -33 0
169 -1 -4 -11 29 -116 0
169 -1 -4 -11 30 -117 0
169 -1 -5 12 118 13 119 0
169 -1 -5 -12 -126 0
169 -1 -5 -118 -14 0
169 -1 -5 -118 -15 0
169 -1 -5 -118 -16 0
169 -1 -5 -118 -17 0
169 -1 -5 -118 -18 0
169 -1 -5 -13 -136 0
169 -1 -5 -13 -137 0
169 -1 -5 -13 -138 0
169 -1 -5 -119 -24 0
169 -1 -5 -119 -25 0
169 -1 -5 -12 14 -127 0
169 -1 -5 -118 126 -19 0
169 -1 -5 -12 15 -128 0
169 -1 -5 -118 127 -20 0
169 -1 -5 -12 16 -129 0
169 -1 -5 -118 128 -21 0
169 -1 -5 -12 17 -130 0
169 -1 -5 -118 129 -22 0
169 -1 -5 -12 18 -131 0
169 -1 -5 -118 130 -23 0
169 -1 -5 -12 19 -132 0
169 -1 -5 -12 20 -133 0
169 -1 -5 -12 21 -134 0
169 -1 -5 -12 22 -135 0
169 -1 -5 -13 24 -139 0
169 -1 -5 -119 136 -26 0
169 -1 -5 -13 25 -140 0
169 -1 -5 -119 137 -27 0
169 -1 -5 -13 26 -141 0
169 -1 -5 -119 138 -28 0
169 -1 -5 -13 27 -142 0
169 -1 -5 -119 139 -29 0
169 -1 -5 -13 28 -143 0
169 -1 -5 -119 140 -30 0
169 -1 -5 -13 29 -144 0
169 -1 -5 -119 141 -31 0
169 -1 -5 -13 30 -145 0
169 -1 -5 -119 142 -32 0
169 -2 -3 36 64 0
169 -2 -3 -36 -70 0
169 -2 -3 -36 -71 0
169 -2 -3 -64 -42 0
169 -2 -3 -64 -43 0
169 -2 -3 -64 -44 0
169 -2 -3 -36 42 -72 0
169 -2 -3 -64 70 -45 0
169 -2 -3 -36 43 -73 0
169 -2 -3 -64 71 -46 0
169 -2 -3 -36 44 -74 0
169 -2 -3 -64 72 -47 0
169 -2 -3 -36 45 -75 0
169 -2 -3 -64 73 -48 0
169 -2 -3 -36 46 -76 0
169 -2 -3 -64 74 -49 0
169 -2 -3 -36 47 -77 0
169 -2 -3 -64 75 -50 0
169 -2 -3 -36 48 -78 0
169 -2 -3 -64 76 -51 0
169 -2 -3 -36 49 -79 0
169 -2 -4 38 92 0
169 -2 -4 -38 -98 0
169 -2 -4 -38 -99 0
169 -2 -4 -92 -42 0
169 -2 -4 -92 -43 0
169 -2 -4 -92 -44 0
169 -2 -4 -92 -45 0
169 -2 -4 -38 42 -100 0
169 -2 -4 -92 98 -46 0
169 -2 -4 -38 43 -101 0
169 -2 -4 -92 99 -47 0
169 -2 -4 -38 44 -102 0
169 -2 -4 -92 100 -48 0
169 -2 -4 -38 45 -103 0
169 -2 -4 -92 101 -49 0
169 -2 -4 -38 46 -104 0
169 -2 -4 -92 102 -50 0
169 -2 -4 -38 47 -105 0
169 -2 -4 -92 103 -51 0
169 -2 -4 -38 48 -106 0
169 -2 -4 -38 49 -107 0
169 -2 -5 40 120 41 121 0
169 -2 -5 -40 -126 0
169 -2 -5 -40 -127 0
169 -2 -5 -120 -42 0
169 -2 -5 -120 -43 0
169 -2 -5 -120 -44 0
169 -2 -5 -120 -45 0
169 -2 -5 -120 -46 0
169 -2 -5 -41 -136 0
169 -2 -5 -41 -137 0
169 -2 -5 -41 -138 0
169 -2 -5 -41 -139 0
169 -2 -5 -41 -140 0
169 -2 -5 -41 -141 0
169 -2 -5 -41 -142 0
169 -2 -5 -41 -143 0
169 -2 -5 -121 -52 0
169 -2 -5 -121 -53 0
169 -2 -5 -40 42 -128 0
169 -2 -5 -120 126 -47 0
169 -2 -5 -40 43 -129 0
169 -2 -5 -120 127 -48 0
169 -2 -5 -40 44 -130 0
169 -2 -5 -120 128 -49 0
169 -2 -5 -40 45 -131 0
169 -2 -5 -120 129 -50 0
169 -2 -5 -40 46 -132 0
169 -2 -5 -120 130 -51 0
169 -2 -5 -40 47 -133 0
169 -2 -5 -40 48 -134 0
169 -2 -5 -40 49 -135 0
169 -2 -5 -41 52 -144 0
169 -2 -5 -121 136 -54 0
169 -2 -5 -41 53 -145 0
169 -2 -5 -121 137 -55 0
169 -3 -4 66 94 0
169 -3 -4 -66 -98 0
169 -3 -4 -66 -99 0
169 -3 -4 -66 -100 0
169 -3 -4 -94 -70 0
169 -3 -4 -94 -71 0
169 -3 -4 -94 -72 0
169 -3 -4 -94 -73 0
169 -3 -4 -66 70 -101 0
169 -3 -4 -94 98 -74 0
169 -3 -4 -66 71 -102 0
169 -3 -4 -94 99 -75 0
169 -3 -4 -66 72 -103 0
169 -3 -4 -94 100 -76 0
169 -3 -4 -66 73 -104 0
169 -3 -4 -94 101 -77 0
169 -3 -4 -66 74 -105 0
169 -3 -4 -94 102 -78 0
169 -3 -4 -66 75 -106 0
169 -3 -4 -94 103 -79 0
169 -3 -4 -66 76 -107 0
169 -3 -5 68 122 0
169 -3 -5 -68 -126 0
169 -3 -5 -68 -127 0
169 -3 -5 -68 -128 0
169 -3 -5 -122 -70 0
169 -3 -5 -122 -71 0
169 -3 -5 -122 -72 0
169 -3 -5 -122 -73 0
169 -3 -5 -122 -74 0
169 -3 -5 -68 70 -129 0
169 -3 -5 -122 126 -75 0
169 -3 -5 -68 71 -130 0
169 -3 -5 -122 127 -76 0
169 -3 -5 -68 72 -131 0
169 -3 -5 -122 128 -77 0
169 -3 -5 -68 73 -132 0
169 -3 -5 -122 129 -78 0
169 -3 -5 -68 74 -133 0
169 -3 -5 -122 130 -79 0
169 -3 -5 -68 75 -134 0
169 -3 -5 -68 76 -135 0
169 -4 -5 96 124 97 125 0
169 -4 -5 -96 -126 0
169 -4 -5 -96 -127 0
169 -4 -5 -96 -128 0
169 -4 -5 -96 -129 0
169 -4 -5 -124 -98 0
169 -4 -5 -124 -99 0
169 -4 -5 -124 -100 0
169 -4 -5 -124 -101 0
169 -4 -5 -124 -102 0
169 -4 -5 -97 -136 0
169 -4 -5 -97 -137 0
169 -4 -5 -97 -138 0
169 -4 -5 -97 -139 0
169 -4 -5 -97 -140 0
169 -4 -5 -125 -108 0
169 -4 -5 -125 -109 0
169 -4 -5 -96 98 -130 0
169 -4 -5 -124 126 -103 0
169 -4 -5 -96 99 -131 0
169 -4 -5 -124 127 -104 0
169 -4 -5 -96 100 -132 0
169 -4 -5 -124 128 -105 0
169 -4 -5 -96 101 -133 0
169 -4 -5 -124 129 -106 0
169 -4 -5 -96 102 -134 0
169 -4 -5 -124 130 -107 0
169 -4 -5 -96 103 -135 0
169 -4 -5 -97 108 -141 0
169 -4 -5 -125 136 -110 0
169 -4 -5 -97 109 -142 0
169 -4 -5 -125 137 -111 0
169 -4 -5 -97 110 -143 0
169 -4 -5 -125 138 -112 0
169 -4 -5 -97 111 -144 0
169 -4 -5 -125 139 -113 0
169 -4 -5 -97 112 -145 0
169 -4 -5 -125 140 -114 0
169 23 -1 0
169 31 -1 0
169 32 -1 0
169 33 -1 0
169 50 -2 0
169 51 -2 0
169 54 -2 0
169 55 -2 0
169 56 -2 0
169 57 -2 0
169 58 -2 0
169 59 -2 0
169 60 -2 0
169 61 -2 0
169 77 -3 0
169 78 -3 0
169 79 -3 0
169 80 -3 0
169 81 -3 0
169 82 -3 0
169 83 -3 0
169 84 -3 0
169 85 -3 0
169 86 -3 0
169 87 -3 0
169 88 -3 0
169 89 -3 0
169 104 -4 0
169 105 -4 0
169 106 -4 0
169 107 -4 0
169 113 -4 0
169 114 -4 0
169 115 -4 0
169 116 -4 0
169 117 -4 0
169 131 -5 0
169 132 -5 0
169 133 -5 0
169 134 -5 0
169 135 -5 0
169 144 -5 0
169 145 -5 0
